NAME : VRPExample
COMMENT : Optimal solution: 250, Clarke and Wright solution: 265
TYPE : CVRP
DIMENSION : 10
EDGE_WEIGHT_TYPE : EUC_2D
CAPACITY : 50
NODE_COORD_SECTION
1 40 50
2 45 68
3 45 70
4 42 66
5 42 68
6 42 65
7 40 69
8 45 70
9 45 67
10 40 66
DEMAND_SECTION
1 0
2 10
3 10
4 20
5 10
6 20
7 10
8 15
9 10
10 5
DEPOT_SECTION
1
-1
EOF